NAME: tsp50_26
COMMENT: 50-tsp problem (Padberg/Rinaldi)
TYPE: TSP
DIMENSION: 50
EDGE_WEIGHT_TYPE : EUC_2D
NODE_COORD_SECTION
1 2 31
2 32 7
3 4 22
4 14 30
5 19 30
6 21 5
7 2 39
8 6 40
9 30 12
10 29 8
11 30 16
12 11 37
13 29 32
14 19 38
15 12 35
16 32 10
17 14 9
18 9 35
19 30 2
20 29 17
21 39 17
22 40 17
23 23 16
24 35 32
25 8 19
26 32 40
27 1 17
28 29 20
29 39 4
30 4 22
31 8 19
32 18 27
33 0 6
34 37 16
35 27 11
36 6 10
37 34 11
38 1 15
39 39 35
40 12 34
41 26 17
42 25 5
43 15 10
44 35 21
45 38 25
46 1 12
47 31 26
48 9 8
49 38 1
50 10 5
